param TOT_LAYERS := 4;  # Total Number of layers in the ANN
param N_NODES := 4 6 6 2;  # Number of nodes for each layer
param ANN_WEIGTHS :=
                     1   -5 -3 -3 -9 -5 -7 -7 8 0 -3 -2 9 -10 -3 -5 -5 -1 6 3 -5 4 5 2 6
                     2   -4 -2 -10 -6 -6 7 -1 7 7 4 2 -8 -9 -8 -1 -6 -9 -8 -3 5 5 0 8 -2 -9 -3 0 8 8 1 -10 -4 -9 -1 -10 2
                     3   5 4 -9 10 -1 -5 2 -1 -8 -9 5 1 ;
end;
